============================[ Problem Statistics ]=============================|                                                                             ||  Number of variables:          4242                                         ||  Number of clauses:           10350                                         ||  Parse time:                   0.73 s                                       ||                                                                             |============================[ Search Statistics ]==============================| Conflicts |          ORIGINAL         |          LEARNT          | Progress ||           |    Vars  Clauses Literals |    Limit  Clauses Lit/Cl |          |===============================================================================|       100 |    1591     6555  1176406 |     2403      100     53 | 62.501 % ||       250 |    1591     6555  1176406 |     2643      250     75 | 62.495 % |===============================================================================restarts              : 3conflicts             : 399            (358 /sec)decisions             : 662            (0.00 % random) (595 /sec)propagations          : 12054          (10830 /sec)conflict literals     : 33089          (94.55 % deleted)CPU time              : 1.113 sSATISFIABLE